GLPSOL--GLPK LP/MIP Solver 5.0
Parameter(s) specified in the command line:
 --lp ../modeles/5_44.lp --log 5_44.log
Reading problem data from '../modeles/5_44.lp'...
241 rows, 450 columns, 1555 non-zeros
220 integer variables, all of which are binary
702 lines were read
GLPK Integer Optimizer 5.0
241 rows, 450 columns, 1555 non-zeros
220 integer variables, all of which are binary
Preprocessing...
210 constraint coefficient(s) were reduced
241 rows, 445 columns, 1550 non-zeros
220 integer variables, all of which are binary
Scaling...
 A: min|aij| =  8.264e-03  max|aij| =  4.000e+00  ratio =  4.840e+02
GM: min|aij| =  2.132e-01  max|aij| =  4.690e+00  ratio =  2.200e+01
EQ: min|aij| =  4.545e-02  max|aij| =  1.000e+00  ratio =  2.200e+01
2N: min|aij| =  3.125e-02  max|aij| =  1.675e+00  ratio =  5.359e+01
Constructing initial basis...
Size of triangular part is 241
Solving LP relaxation...
GLPK Simplex Optimizer 5.0
241 rows, 445 columns, 1550 non-zeros
      0: obj =   1.000000000e+01 inf =   2.450e+01 (11)
     44: obj =  -2.004153686e-01 inf =   0.000e+00 (0)
*   133: obj =  -2.232323232e+00 inf =   3.331e-16 (0)
OPTIMAL LP SOLUTION FOUND
Integer optimization begins...
Long-step dual simplex will be used
+   133: mip =     not found yet >=              -inf        (1; 0)
+   135: >>>>>  -2.232323232e+00 >=  -2.232323232e+00 < 0.1% (3; 0)
+   135: mip =  -2.232323232e+00 >=     tree is empty   0.0% (0; 5)
INTEGER OPTIMAL SOLUTION FOUND
Time used:   0.0 secs
Memory used: 0.7 Mb (729997 bytes)
